rc101_2
0 85 99 98 101 59 86 66 73 60 105 7 50 1 6 8 10 9 51 13 11 12 84 78 22 17 16 2 15 14 18 20 21 52 19 83 65 93 103 58 87 74 0 70 71 96 97 100 61 89 56 90 67 55 39 36 4 34 32 31 33 35 37 38 68 81 29 54 24 23 3 26 53 25 27 62 91 79 92 64 63 30 28 3 82 80 102 57 104 88 69 95 0 75 47 49 48 45 41 40 42 43 44 46 5 77 76 72 94 0